language Essence 1.3
letting nnodes be 110
letting nrings be 55
letting capacity be 55
letting demand be 
{{1, 2},
{1, 3},
{1, 4},
{1, 6},
{1, 9},
{1, 10},
{1, 11},
{1, 15},
{1, 16},
{1, 17},
{1, 19},
{1, 20},
{1, 22},
{1, 24},
{1, 26},
{1, 27},
{1, 30},
{1, 32},
{1, 33},
{1, 35},
{1, 36},
{1, 37},
{1, 38},
{1, 41},
{1, 42},
{1, 45},
{1, 49},
{1, 51},
{1, 53},
{1, 56},
{1, 60},
{1, 61},
{1, 64},
{1, 66},
{1, 68},
{1, 71},
{1, 72},
{1, 73},
{1, 74},
{1, 77},
{1, 78},
{1, 79},
{1, 84},
{1, 85},
{1, 86},
{1, 88},
{1, 93},
{1, 96},
{1, 100},
{1, 106},
{1, 107},
{1, 110},
{2, 3},
{2, 4},
{2, 5},
{2, 6},
{2, 10},
{2, 14},
{2, 16},
{2, 17},
{2, 18},
{2, 19},
{2, 23},
{2, 24},
{2, 27},
{2, 29},
{2, 30},
{2, 32},
{2, 35},
{2, 37},
{2, 38},
{2, 41},
{2, 43},
{2, 44},
{2, 45},
{2, 53},
{2, 56},
{2, 58},
{2, 60},
{2, 63},
{2, 66},
{2, 67},
{2, 69},
{2, 70},
{2, 74},
{2, 76},
{2, 78},
{2, 82},
{2, 83},
{2, 85},
{2, 86},
{2, 87},
{2, 88},
{2, 90},
{2, 91},
{2, 92},
{2, 93},
{2, 94},
{2, 96},
{2, 99},
{2, 100},
{2, 101},
{2, 106},
{2, 110},
{3, 5},
{3, 6},
{3, 9},
{3, 11},
{3, 13},
{3, 15},
{3, 16},
{3, 22},
{3, 23},
{3, 24},
{3, 27},
{3, 29},
{3, 32},
{3, 33},
{3, 38},
{3, 39},
{3, 40},
{3, 41},
{3, 45},
{3, 46},
{3, 49},
{3, 51},
{3, 52},
{3, 54},
{3, 55},
{3, 56},
{3, 60},
{3, 63},
{3, 65},
{3, 67},
{3, 71},
{3, 76},
{3, 80},
{3, 81},
{3, 82},
{3, 85},
{3, 92},
{3, 95},
{3, 97},
{3, 98},
{3, 99},
{3, 102},
{3, 103},
{3, 104},
{3, 105},
{3, 106},
{3, 108},
{3, 109},
{4, 7},
{4, 9},
{4, 10},
{4, 12},
{4, 13},
{4, 17},
{4, 18},
{4, 21},
{4, 23},
{4, 24},
{4, 26},
{4, 30},
{4, 34},
{4, 35},
{4, 36},
{4, 37},
{4, 39},
{4, 40},
{4, 41},
{4, 43},
{4, 44},
{4, 47},
{4, 48},
{4, 51},
{4, 53},
{4, 55},
{4, 56},
{4, 57},
{4, 59},
{4, 60},
{4, 64},
{4, 65},
{4, 66},
{4, 67},
{4, 72},
{4, 73},
{4, 74},
{4, 76},
{4, 78},
{4, 80},
{4, 86},
{4, 91},
{4, 96},
{4, 97},
{4, 98},
{4, 102},
{4, 103},
{4, 104},
{4, 110},
{5, 8},
{5, 10},
{5, 11},
{5, 12},
{5, 13},
{5, 15},
{5, 17},
{5, 18},
{5, 21},
{5, 23},
{5, 24},
{5, 27},
{5, 34},
{5, 39},
{5, 41},
{5, 42},
{5, 44},
{5, 45},
{5, 46},
{5, 47},
{5, 51},
{5, 52},
{5, 53},
{5, 55},
{5, 56},
{5, 59},
{5, 60},
{5, 62},
{5, 66},
{5, 72},
{5, 78},
{5, 80},
{5, 82},
{5, 83},
{5, 85},
{5, 86},
{5, 89},
{5, 90},
{5, 91},
{5, 93},
{5, 96},
{5, 97},
{5, 100},
{5, 101},
{5, 103},
{5, 105},
{5, 106},
{5, 108},
{5, 110},
{6, 12},
{6, 13},
{6, 14},
{6, 15},
{6, 17},
{6, 20},
{6, 22},
{6, 27},
{6, 28},
{6, 29},
{6, 33},
{6, 34},
{6, 36},
{6, 38},
{6, 40},
{6, 42},
{6, 43},
{6, 45},
{6, 50},
{6, 52},
{6, 53},
{6, 54},
{6, 60},
{6, 61},
{6, 65},
{6, 66},
{6, 67},
{6, 68},
{6, 69},
{6, 71},
{6, 72},
{6, 75},
{6, 76},
{6, 77},
{6, 78},
{6, 81},
{6, 84},
{6, 85},
{6, 86},
{6, 88},
{6, 89},
{6, 91},
{6, 92},
{6, 94},
{6, 97},
{6, 99},
{6, 101},
{6, 102},
{6, 104},
{6, 105},
{7, 8},
{7, 11},
{7, 15},
{7, 18},
{7, 19},
{7, 21},
{7, 23},
{7, 24},
{7, 25},
{7, 27},
{7, 29},
{7, 38},
{7, 42},
{7, 43},
{7, 44},
{7, 45},
{7, 46},
{7, 47},
{7, 48},
{7, 52},
{7, 58},
{7, 60},
{7, 61},
{7, 65},
{7, 66},
{7, 69},
{7, 70},
{7, 71},
{7, 74},
{7, 75},
{7, 77},
{7, 79},
{7, 80},
{7, 83},
{7, 85},
{7, 88},
{7, 89},
{7, 90},
{7, 92},
{7, 95},
{7, 96},
{7, 98},
{7, 99},
{7, 101},
{7, 104},
{7, 108},
{7, 109},
{8, 11},
{8, 12},
{8, 13},
{8, 17},
{8, 18},
{8, 19},
{8, 21},
{8, 25},
{8, 27},
{8, 28},
{8, 31},
{8, 32},
{8, 37},
{8, 38},
{8, 40},
{8, 41},
{8, 42},
{8, 46},
{8, 47},
{8, 49},
{8, 52},
{8, 53},
{8, 55},
{8, 56},
{8, 58},
{8, 60},
{8, 62},
{8, 63},
{8, 67},
{8, 68},
{8, 69},
{8, 71},
{8, 72},
{8, 75},
{8, 76},
{8, 77},
{8, 79},
{8, 83},
{8, 86},
{8, 88},
{8, 89},
{8, 90},
{8, 94},
{8, 95},
{8, 97},
{8, 98},
{8, 99},
{8, 100},
{8, 101},
{8, 103},
{8, 104},
{8, 105},
{8, 110},
{9, 10},
{9, 11},
{9, 13},
{9, 16},
{9, 20},
{9, 22},
{9, 23},
{9, 24},
{9, 26},
{9, 28},
{9, 29},
{9, 32},
{9, 36},
{9, 39},
{9, 42},
{9, 47},
{9, 48},
{9, 49},
{9, 50},
{9, 51},
{9, 53},
{9, 55},
{9, 56},
{9, 58},
{9, 59},
{9, 62},
{9, 63},
{9, 65},
{9, 66},
{9, 67},
{9, 73},
{9, 74},
{9, 75},
{9, 78},
{9, 81},
{9, 83},
{9, 86},
{9, 87},
{9, 88},
{9, 92},
{9, 93},
{9, 94},
{9, 95},
{9, 96},
{9, 98},
{9, 101},
{9, 102},
{9, 104},
{9, 106},
{9, 108},
{10, 12},
{10, 19},
{10, 20},
{10, 21},
{10, 22},
{10, 23},
{10, 25},
{10, 29},
{10, 30},
{10, 32},
{10, 33},
{10, 34},
{10, 36},
{10, 37},
{10, 39},
{10, 40},
{10, 41},
{10, 42},
{10, 43},
{10, 46},
{10, 49},
{10, 51},
{10, 53},
{10, 55},
{10, 56},
{10, 58},
{10, 62},
{10, 65},
{10, 66},
{10, 67},
{10, 74},
{10, 75},
{10, 76},
{10, 78},
{10, 80},
{10, 81},
{10, 82},
{10, 88},
{10, 89},
{10, 90},
{10, 91},
{10, 92},
{10, 94},
{10, 95},
{10, 96},
{10, 97},
{10, 105},
{10, 106},
{10, 108},
{10, 109},
{10, 110},
{11, 14},
{11, 17},
{11, 20},
{11, 22},
{11, 24},
{11, 25},
{11, 26},
{11, 27},
{11, 28},
{11, 29},
{11, 32},
{11, 33},
{11, 34},
{11, 35},
{11, 36},
{11, 40},
{11, 43},
{11, 44},
{11, 45},
{11, 47},
{11, 52},
{11, 56},
{11, 62},
{11, 63},
{11, 69},
{11, 71},
{11, 73},
{11, 76},
{11, 77},
{11, 79},
{11, 81},
{11, 85},
{11, 86},
{11, 88},
{11, 91},
{11, 92},
{11, 93},
{11, 95},
{11, 98},
{11, 99},
{11, 100},
{11, 102},
{11, 103},
{11, 108},
{11, 109},
{12, 16},
{12, 17},
{12, 18},
{12, 20},
{12, 23},
{12, 24},
{12, 31},
{12, 34},
{12, 36},
{12, 37},
{12, 40},
{12, 44},
{12, 46},
{12, 49},
{12, 50},
{12, 53},
{12, 55},
{12, 57},
{12, 58},
{12, 63},
{12, 65},
{12, 66},
{12, 69},
{12, 70},
{12, 73},
{12, 76},
{12, 77},
{12, 78},
{12, 79},
{12, 80},
{12, 81},
{12, 82},
{12, 83},
{12, 89},
{12, 90},
{12, 93},
{12, 96},
{12, 97},
{12, 100},
{12, 102},
{12, 104},
{12, 106},
{12, 108},
{12, 109},
{12, 110},
{13, 14},
{13, 15},
{13, 16},
{13, 18},
{13, 20},
{13, 21},
{13, 23},
{13, 25},
{13, 26},
{13, 27},
{13, 28},
{13, 29},
{13, 32},
{13, 34},
{13, 43},
{13, 48},
{13, 50},
{13, 52},
{13, 57},
{13, 58},
{13, 60},
{13, 63},
{13, 64},
{13, 65},
{13, 66},
{13, 69},
{13, 70},
{13, 73},
{13, 74},
{13, 76},
{13, 77},
{13, 78},
{13, 79},
{13, 80},
{13, 81},
{13, 82},
{13, 83},
{13, 85},
{13, 87},
{13, 89},
{13, 90},
{13, 92},
{13, 94},
{13, 98},
{13, 100},
{13, 101},
{13, 102},
{13, 104},
{13, 105},
{13, 106},
{13, 107},
{13, 108},
{13, 109},
{13, 110},
{14, 17},
{14, 19},
{14, 20},
{14, 25},
{14, 30},
{14, 31},
{14, 32},
{14, 33},
{14, 34},
{14, 38},
{14, 40},
{14, 42},
{14, 45},
{14, 47},
{14, 48},
{14, 51},
{14, 54},
{14, 55},
{14, 56},
{14, 58},
{14, 59},
{14, 60},
{14, 61},
{14, 62},
{14, 64},
{14, 66},
{14, 68},
{14, 70},
{14, 74},
{14, 75},
{14, 78},
{14, 81},
{14, 84},
{14, 86},
{14, 87},
{14, 89},
{14, 90},
{14, 93},
{14, 94},
{14, 96},
{14, 97},
{14, 99},
{14, 102},
{14, 105},
{14, 106},
{14, 107},
{14, 110},
{15, 17},
{15, 18},
{15, 19},
{15, 20},
{15, 21},
{15, 22},
{15, 23},
{15, 24},
{15, 29},
{15, 32},
{15, 35},
{15, 36},
{15, 37},
{15, 38},
{15, 39},
{15, 47},
{15, 50},
{15, 51},
{15, 52},
{15, 53},
{15, 57},
{15, 61},
{15, 62},
{15, 64},
{15, 65},
{15, 67},
{15, 68},
{15, 69},
{15, 76},
{15, 80},
{15, 81},
{15, 82},
{15, 84},
{15, 85},
{15, 87},
{15, 88},
{15, 89},
{15, 91},
{15, 93},
{15, 95},
{15, 97},
{15, 99},
{15, 104},
{15, 106},
{15, 107},
{15, 108},
{15, 110},
{16, 17},
{16, 18},
{16, 23},
{16, 26},
{16, 30},
{16, 31},
{16, 32},
{16, 34},
{16, 39},
{16, 41},
{16, 42},
{16, 44},
{16, 47},
{16, 48},
{16, 49},
{16, 56},
{16, 58},
{16, 59},
{16, 60},
{16, 62},
{16, 63},
{16, 67},
{16, 69},
{16, 70},
{16, 75},
{16, 81},
{16, 82},
{16, 83},
{16, 85},
{16, 87},
{16, 92},
{16, 94},
{16, 96},
{16, 98},
{16, 99},
{16, 100},
{16, 103},
{16, 104},
{16, 105},
{16, 107},
{16, 110},
{17, 18},
{17, 20},
{17, 21},
{17, 26},
{17, 29},
{17, 30},
{17, 31},
{17, 32},
{17, 33},
{17, 34},
{17, 35},
{17, 38},
{17, 39},
{17, 43},
{17, 47},
{17, 51},
{17, 53},
{17, 56},
{17, 58},
{17, 62},
{17, 63},
{17, 64},
{17, 66},
{17, 67},
{17, 70},
{17, 72},
{17, 73},
{17, 74},
{17, 75},
{17, 76},
{17, 77},
{17, 80},
{17, 83},
{17, 86},
{17, 88},
{17, 89},
{17, 92},
{17, 93},
{17, 95},
{17, 98},
{17, 99},
{17, 100},
{17, 102},
{17, 104},
{17, 107},
{18, 19},
{18, 20},
{18, 21},
{18, 22},
{18, 24},
{18, 26},
{18, 28},
{18, 30},
{18, 34},
{18, 35},
{18, 36},
{18, 37},
{18, 38},
{18, 39},
{18, 41},
{18, 42},
{18, 44},
{18, 46},
{18, 47},
{18, 51},
{18, 52},
{18, 54},
{18, 57},
{18, 59},
{18, 61},
{18, 62},
{18, 63},
{18, 65},
{18, 66},
{18, 67},
{18, 70},
{18, 71},
{18, 72},
{18, 73},
{18, 75},
{18, 77},
{18, 78},
{18, 81},
{18, 82},
{18, 91},
{18, 92},
{18, 93},
{18, 94},
{18, 97},
{18, 99},
{18, 102},
{18, 103},
{18, 104},
{18, 105},
{18, 107},
{18, 108},
{18, 109},
{19, 23},
{19, 29},
{19, 30},
{19, 31},
{19, 35},
{19, 36},
{19, 37},
{19, 41},
{19, 42},
{19, 44},
{19, 47},
{19, 50},
{19, 52},
{19, 56},
{19, 57},
{19, 59},
{19, 60},
{19, 63},
{19, 67},
{19, 69},
{19, 71},
{19, 72},
{19, 74},
{19, 80},
{19, 81},
{19, 82},
{19, 85},
{19, 87},
{19, 88},
{19, 90},
{19, 91},
{19, 94},
{19, 95},
{19, 97},
{19, 100},
{19, 101},
{19, 102},
{19, 103},
{19, 105},
{19, 108},
{19, 110},
{20, 21},
{20, 22},
{20, 23},
{20, 26},
{20, 27},
{20, 30},
{20, 31},
{20, 32},
{20, 37},
{20, 39},
{20, 41},
{20, 45},
{20, 47},
{20, 49},
{20, 50},
{20, 51},
{20, 54},
{20, 55},
{20, 56},
{20, 57},
{20, 58},
{20, 59},
{20, 60},
{20, 62},
{20, 64},
{20, 65},
{20, 66},
{20, 68},
{20, 69},
{20, 71},
{20, 72},
{20, 73},
{20, 75},
{20, 78},
{20, 80},
{20, 81},
{20, 83},
{20, 85},
{20, 86},
{20, 88},
{20, 89},
{20, 91},
{20, 92},
{20, 95},
{20, 98},
{20, 101},
{20, 102},
{20, 103},
{20, 105},
{20, 109},
{21, 22},
{21, 25},
{21, 26},
{21, 27},
{21, 30},
{21, 34},
{21, 36},
{21, 38},
{21, 40},
{21, 41},
{21, 44},
{21, 45},
{21, 47},
{21, 49},
{21, 54},
{21, 55},
{21, 56},
{21, 58},
{21, 59},
{21, 62},
{21, 64},
{21, 65},
{21, 68},
{21, 72},
{21, 73},
{21, 75},
{21, 78},
{21, 80},
{21, 82},
{21, 83},
{21, 84},
{21, 87},
{21, 88},
{21, 94},
{21, 98},
{21, 101},
{21, 106},
{21, 107},
{21, 108},
{21, 110},
{22, 23},
{22, 24},
{22, 26},
{22, 27},
{22, 28},
{22, 29},
{22, 30},
{22, 31},
{22, 32},
{22, 33},
{22, 34},
{22, 36},
{22, 39},
{22, 40},
{22, 43},
{22, 48},
{22, 52},
{22, 55},
{22, 56},
{22, 60},
{22, 63},
{22, 67},
{22, 71},
{22, 73},
{22, 74},
{22, 76},
{22, 77},
{22, 78},
{22, 80},
{22, 82},
{22, 83},
{22, 84},
{22, 85},
{22, 89},
{22, 90},
{22, 91},
{22, 93},
{22, 94},
{22, 97},
{22, 98},
{22, 99},
{22, 102},
{22, 104},
{22, 105},
{22, 109},
{23, 24},
{23, 27},
{23, 28},
{23, 29},
{23, 30},
{23, 35},
{23, 39},
{23, 42},
{23, 43},
{23, 44},
{23, 45},
{23, 46},
{23, 47},
{23, 49},
{23, 50},
{23, 51},
{23, 53},
{23, 55},
{23, 56},
{23, 60},
{23, 63},
{23, 64},
{23, 66},
{23, 73},
{23, 75},
{23, 77},
{23, 78},
{23, 82},
{23, 83},
{23, 84},
{23, 86},
{23, 89},
{23, 91},
{23, 94},
{23, 96},
{23, 98},
{23, 100},
{23, 101},
{23, 104},
{23, 105},
{23, 110},
{24, 25},
{24, 27},
{24, 28},
{24, 29},
{24, 30},
{24, 37},
{24, 38},
{24, 40},
{24, 44},
{24, 45},
{24, 46},
{24, 48},
{24, 50},
{24, 51},
{24, 52},
{24, 53},
{24, 56},
{24, 57},
{24, 58},
{24, 60},
{24, 61},
{24, 63},
{24, 64},
{24, 65},
{24, 68},
{24, 70},
{24, 71},
{24, 73},
{24, 75},
{24, 79},
{24, 83},
{24, 84},
{24, 85},
{24, 89},
{24, 90},
{24, 91},
{24, 93},
{24, 94},
{24, 96},
{24, 97},
{24, 98},
{24, 99},
{24, 100},
{24, 101},
{24, 105},
{24, 106},
{24, 108},
{25, 26},
{25, 28},
{25, 29},
{25, 31},
{25, 33},
{25, 34},
{25, 36},
{25, 37},
{25, 39},
{25, 40},
{25, 42},
{25, 43},
{25, 46},
{25, 47},
{25, 48},
{25, 52},
{25, 54},
{25, 55},
{25, 60},
{25, 63},
{25, 67},
{25, 72},
{25, 76},
{25, 81},
{25, 83},
{25, 85},
{25, 88},
{25, 89},
{25, 91},
{25, 92},
{25, 96},
{25, 98},
{25, 100},
{25, 105},
{25, 106},
{25, 107},
{25, 108},
{25, 109},
{26, 30},
{26, 31},
{26, 34},
{26, 35},
{26, 36},
{26, 39},
{26, 42},
{26, 44},
{26, 45},
{26, 47},
{26, 49},
{26, 51},
{26, 52},
{26, 53},
{26, 54},
{26, 55},
{26, 56},
{26, 57},
{26, 59},
{26, 60},
{26, 61},
{26, 64},
{26, 65},
{26, 66},
{26, 68},
{26, 69},
{26, 70},
{26, 72},
{26, 75},
{26, 78},
{26, 79},
{26, 80},
{26, 81},
{26, 90},
{26, 94},
{26, 96},
{26, 100},
{26, 102},
{26, 103},
{26, 105},
{26, 106},
{26, 110},
{27, 30},
{27, 33},
{27, 34},
{27, 35},
{27, 36},
{27, 38},
{27, 40},
{27, 41},
{27, 47},
{27, 48},
{27, 49},
{27, 56},
{27, 58},
{27, 61},
{27, 63},
{27, 64},
{27, 66},
{27, 67},
{27, 69},
{27, 70},
{27, 73},
{27, 74},
{27, 75},
{27, 79},
{27, 80},
{27, 82},
{27, 84},
{27, 89},
{27, 90},
{27, 91},
{27, 93},
{27, 94},
{27, 95},
{27, 98},
{27, 101},
{27, 102},
{27, 104},
{27, 106},
{27, 108},
{27, 109},
{27, 110},
{28, 29},
{28, 32},
{28, 33},
{28, 38},
{28, 42},
{28, 43},
{28, 44},
{28, 46},
{28, 50},
{28, 54},
{28, 56},
{28, 57},
{28, 58},
{28, 61},
{28, 62},
{28, 65},
{28, 70},
{28, 71},
{28, 72},
{28, 73},
{28, 76},
{28, 77},
{28, 81},
{28, 83},
{28, 84},
{28, 89},
{28, 90},
{28, 92},
{28, 95},
{28, 96},
{28, 98},
{28, 99},
{28, 100},
{28, 101},
{28, 102},
{28, 103},
{28, 104},
{28, 105},
{28, 107},
{28, 108},
{28, 109},
{28, 110},
{29, 30},
{29, 31},
{29, 33},
{29, 34},
{29, 36},
{29, 38},
{29, 41},
{29, 44},
{29, 45},
{29, 50},
{29, 54},
{29, 55},
{29, 56},
{29, 57},
{29, 58},
{29, 59},
{29, 61},
{29, 62},
{29, 63},
{29, 64},
{29, 65},
{29, 70},
{29, 73},
{29, 74},
{29, 75},
{29, 76},
{29, 77},
{29, 78},
{29, 79},
{29, 80},
{29, 82},
{29, 83},
{29, 84},
{29, 85},
{29, 87},
{29, 89},
{29, 90},
{29, 92},
{29, 95},
{29, 96},
{29, 97},
{29, 98},
{29, 102},
{29, 106},
{29, 107},
{29, 108},
{30, 31},
{30, 32},
{30, 33},
{30, 36},
{30, 39},
{30, 40},
{30, 41},
{30, 44},
{30, 45},
{30, 46},
{30, 48},
{30, 50},
{30, 52},
{30, 58},
{30, 59},
{30, 64},
{30, 69},
{30, 71},
{30, 72},
{30, 73},
{30, 74},
{30, 75},
{30, 76},
{30, 77},
{30, 79},
{30, 81},
{30, 82},
{30, 84},
{30, 85},
{30, 86},
{30, 87},
{30, 89},
{30, 91},
{30, 92},
{30, 94},
{30, 99},
{30, 102},
{30, 103},
{30, 104},
{30, 105},
{30, 107},
{30, 108},
{30, 110},
{31, 37},
{31, 40},
{31, 42},
{31, 43},
{31, 44},
{31, 47},
{31, 49},
{31, 50},
{31, 51},
{31, 52},
{31, 55},
{31, 56},
{31, 57},
{31, 58},
{31, 60},
{31, 62},
{31, 63},
{31, 65},
{31, 69},
{31, 71},
{31, 72},
{31, 73},
{31, 74},
{31, 77},
{31, 81},
{31, 82},
{31, 83},
{31, 84},
{31, 86},
{31, 89},
{31, 96},
{31, 97},
{31, 98},
{31, 100},
{31, 101},
{31, 104},
{31, 107},
{31, 110},
{32, 34},
{32, 35},
{32, 36},
{32, 37},
{32, 40},
{32, 41},
{32, 42},
{32, 44},
{32, 45},
{32, 53},
{32, 58},
{32, 59},
{32, 62},
{32, 64},
{32, 65},
{32, 68},
{32, 70},
{32, 71},
{32, 72},
{32, 73},
{32, 74},
{32, 76},
{32, 77},
{32, 78},
{32, 80},
{32, 81},
{32, 82},
{32, 87},
{32, 88},
{32, 89},
{32, 90},
{32, 92},
{32, 93},
{32, 94},
{32, 97},
{32, 98},
{32, 101},
{32, 103},
{32, 104},
{32, 107},
{32, 108},
{33, 34},
{33, 37},
{33, 38},
{33, 39},
{33, 40},
{33, 43},
{33, 45},
{33, 46},
{33, 50},
{33, 51},
{33, 53},
{33, 56},
{33, 57},
{33, 58},
{33, 59},
{33, 60},
{33, 61},
{33, 62},
{33, 64},
{33, 65},
{33, 66},
{33, 68},
{33, 69},
{33, 72},
{33, 77},
{33, 79},
{33, 81},
{33, 85},
{33, 86},
{33, 88},
{33, 89},
{33, 92},
{33, 93},
{33, 94},
{33, 95},
{33, 98},
{33, 101},
{33, 102},
{33, 103},
{33, 104},
{33, 106},
{33, 110},
{34, 35},
{34, 36},
{34, 38},
{34, 39},
{34, 42},
{34, 43},
{34, 46},
{34, 49},
{34, 50},
{34, 51},
{34, 53},
{34, 55},
{34, 56},
{34, 57},
{34, 59},
{34, 62},
{34, 64},
{34, 65},
{34, 66},
{34, 68},
{34, 69},
{34, 71},
{34, 74},
{34, 76},
{34, 78},
{34, 79},
{34, 81},
{34, 83},
{34, 84},
{34, 85},
{34, 86},
{34, 88},
{34, 92},
{34, 94},
{34, 95},
{34, 96},
{34, 101},
{34, 104},
{34, 105},
{34, 107},
{34, 109},
{34, 110},
{35, 41},
{35, 42},
{35, 44},
{35, 45},
{35, 48},
{35, 49},
{35, 50},
{35, 52},
{35, 57},
{35, 60},
{35, 61},
{35, 62},
{35, 64},
{35, 67},
{35, 68},
{35, 70},
{35, 73},
{35, 74},
{35, 76},
{35, 78},
{35, 83},
{35, 84},
{35, 85},
{35, 87},
{35, 88},
{35, 89},
{35, 90},
{35, 93},
{35, 94},
{35, 96},
{35, 97},
{35, 101},
{35, 103},
{35, 104},
{35, 105},
{36, 37},
{36, 38},
{36, 39},
{36, 40},
{36, 42},
{36, 45},
{36, 46},
{36, 47},
{36, 50},
{36, 56},
{36, 60},
{36, 63},
{36, 65},
{36, 66},
{36, 67},
{36, 68},
{36, 69},
{36, 71},
{36, 75},
{36, 76},
{36, 78},
{36, 81},
{36, 85},
{36, 86},
{36, 87},
{36, 91},
{36, 92},
{36, 93},
{36, 96},
{36, 103},
{36, 106},
{36, 107},
{36, 109},
{37, 39},
{37, 42},
{37, 45},
{37, 47},
{37, 50},
{37, 51},
{37, 52},
{37, 54},
{37, 57},
{37, 58},
{37, 62},
{37, 64},
{37, 65},
{37, 70},
{37, 72},
{37, 77},
{37, 80},
{37, 84},
{37, 88},
{37, 90},
{37, 93},
{37, 95},
{37, 96},
{37, 99},
{37, 100},
{37, 101},
{37, 103},
{37, 104},
{37, 108},
{37, 109},
{38, 39},
{38, 40},
{38, 42},
{38, 43},
{38, 44},
{38, 48},
{38, 50},
{38, 51},
{38, 53},
{38, 55},
{38, 56},
{38, 58},
{38, 59},
{38, 60},
{38, 67},
{38, 68},
{38, 71},
{38, 72},
{38, 74},
{38, 77},
{38, 78},
{38, 79},
{38, 80},
{38, 83},
{38, 85},
{38, 88},
{38, 91},
{38, 92},
{38, 94},
{38, 95},
{38, 96},
{38, 97},
{38, 99},
{38, 100},
{38, 102},
{38, 104},
{38, 105},
{38, 108},
{38, 109},
{39, 40},
{39, 41},
{39, 45},
{39, 47},
{39, 48},
{39, 50},
{39, 52},
{39, 53},
{39, 55},
{39, 60},
{39, 63},
{39, 66},
{39, 67},
{39, 68},
{39, 69},
{39, 70},
{39, 71},
{39, 73},
{39, 74},
{39, 75},
{39, 80},
{39, 81},
{39, 82},
{39, 83},
{39, 86},
{39, 92},
{39, 93},
{39, 94},
{39, 95},
{39, 97},
{39, 101},
{39, 102},
{39, 103},
{39, 104},
{39, 106},
{39, 107},
{39, 110},
{40, 41},
{40, 43},
{40, 44},
{40, 47},
{40, 50},
{40, 52},
{40, 53},
{40, 56},
{40, 57},
{40, 59},
{40, 60},
{40, 62},
{40, 65},
{40, 66},
{40, 67},
{40, 68},
{40, 70},
{40, 74},
{40, 77},
{40, 80},
{40, 82},
{40, 83},
{40, 84},
{40, 85},
{40, 88},
{40, 89},
{40, 90},
{40, 91},
{40, 92},
{40, 93},
{40, 94},
{40, 95},
{40, 97},
{40, 98},
{40, 99},
{40, 102},
{40, 103},
{40, 106},
{40, 107},
{41, 43},
{41, 45},
{41, 46},
{41, 47},
{41, 48},
{41, 50},
{41, 51},
{41, 52},
{41, 56},
{41, 58},
{41, 61},
{41, 67},
{41, 68},
{41, 69},
{41, 70},
{41, 72},
{41, 74},
{41, 76},
{41, 77},
{41, 78},
{41, 79},
{41, 82},
{41, 83},
{41, 86},
{41, 90},
{41, 93},
{41, 95},
{41, 96},
{41, 97},
{41, 100},
{41, 102},
{41, 107},
{42, 43},
{42, 44},
{42, 45},
{42, 46},
{42, 49},
{42, 50},
{42, 51},
{42, 53},
{42, 54},
{42, 56},
{42, 57},
{42, 59},
{42, 60},
{42, 61},
{42, 64},
{42, 65},
{42, 68},
{42, 70},
{42, 72},
{42, 73},
{42, 74},
{42, 76},
{42, 78},
{42, 79},
{42, 80},
{42, 82},
{42, 84},
{42, 85},
{42, 87},
{42, 89},
{42, 91},
{42, 92},
{42, 93},
{42, 94},
{42, 98},
{42, 99},
{42, 100},
{42, 101},
{42, 109},
{43, 44},
{43, 46},
{43, 47},
{43, 48},
{43, 49},
{43, 51},
{43, 55},
{43, 59},
{43, 62},
{43, 63},
{43, 65},
{43, 67},
{43, 68},
{43, 70},
{43, 71},
{43, 72},
{43, 73},
{43, 76},
{43, 77},
{43, 78},
{43, 79},
{43, 80},
{43, 83},
{43, 84},
{43, 86},
{43, 87},
{43, 88},
{43, 90},
{43, 91},
{43, 95},
{43, 96},
{43, 97},
{43, 98},
{43, 99},
{43, 102},
{44, 47},
{44, 48},
{44, 52},
{44, 53},
{44, 55},
{44, 56},
{44, 57},
{44, 62},
{44, 63},
{44, 65},
{44, 67},
{44, 68},
{44, 70},
{44, 71},
{44, 75},
{44, 76},
{44, 78},
{44, 80},
{44, 81},
{44, 85},
{44, 86},
{44, 89},
{44, 91},
{44, 93},
{44, 96},
{44, 97},
{44, 98},
{44, 99},
{44, 100},
{44, 102},
{44, 103},
{44, 105},
{44, 106},
{44, 110},
{45, 46},
{45, 55},
{45, 56},
{45, 57},
{45, 61},
{45, 62},
{45, 63},
{45, 65},
{45, 66},
{45, 69},
{45, 74},
{45, 75},
{45, 77},
{45, 78},
{45, 80},
{45, 81},
{45, 84},
{45, 85},
{45, 87},
{45, 92},
{45, 94},
{45, 95},
{45, 96},
{45, 97},
{45, 99},
{45, 104},
{45, 107},
{45, 108},
{45, 109},
{46, 51},
{46, 52},
{46, 54},
{46, 55},
{46, 56},
{46, 57},
{46, 59},
{46, 60},
{46, 61},
{46, 62},
{46, 64},
{46, 65},
{46, 67},
{46, 70},
{46, 71},
{46, 72},
{46, 74},
{46, 75},
{46, 76},
{46, 77},
{46, 78},
{46, 79},
{46, 81},
{46, 82},
{46, 85},
{46, 86},
{46, 87},
{46, 88},
{46, 89},
{46, 90},
{46, 94},
{46, 97},
{46, 98},
{46, 102},
{47, 49},
{47, 52},
{47, 53},
{47, 54},
{47, 57},
{47, 60},
{47, 61},
{47, 66},
{47, 67},
{47, 68},
{47, 69},
{47, 71},
{47, 72},
{47, 74},
{47, 80},
{47, 81},
{47, 82},
{47, 83},
{47, 84},
{47, 87},
{47, 88},
{47, 92},
{47, 94},
{47, 98},
{47, 99},
{47, 102},
{47, 104},
{47, 105},
{47, 106},
{47, 109},
{48, 50},
{48, 52},
{48, 53},
{48, 54},
{48, 55},
{48, 58},
{48, 59},
{48, 62},
{48, 63},
{48, 65},
{48, 66},
{48, 68},
{48, 72},
{48, 73},
{48, 74},
{48, 75},
{48, 82},
{48, 83},
{48, 84},
{48, 85},
{48, 86},
{48, 88},
{48, 89},
{48, 92},
{48, 93},
{48, 98},
{48, 101},
{48, 102},
{48, 103},
{48, 104},
{48, 108},
{49, 51},
{49, 53},
{49, 54},
{49, 55},
{49, 61},
{49, 62},
{49, 68},
{49, 69},
{49, 70},
{49, 74},
{49, 77},
{49, 79},
{49, 81},
{49, 82},
{49, 84},
{49, 86},
{49, 87},
{49, 90},
{49, 92},
{49, 93},
{49, 96},
{49, 97},
{49, 101},
{49, 102},
{49, 107},
{49, 108},
{49, 109},
{49, 110},
{50, 51},
{50, 53},
{50, 56},
{50, 61},
{50, 62},
{50, 64},
{50, 65},
{50, 67},
{50, 68},
{50, 69},
{50, 71},
{50, 73},
{50, 74},
{50, 77},
{50, 78},
{50, 79},
{50, 83},
{50, 84},
{50, 85},
{50, 86},
{50, 89},
{50, 90},
{50, 93},
{50, 95},
{50, 98},
{50, 99},
{50, 101},
{50, 102},
{50, 107},
{50, 108},
{50, 109},
{51, 54},
{51, 58},
{51, 59},
{51, 60},
{51, 61},
{51, 64},
{51, 65},
{51, 67},
{51, 68},
{51, 70},
{51, 73},
{51, 74},
{51, 76},
{51, 77},
{51, 83},
{51, 84},
{51, 86},
{51, 89},
{51, 91},
{51, 92},
{51, 97},
{51, 98},
{51, 100},
{51, 101},
{51, 102},
{51, 104},
{51, 105},
{51, 106},
{51, 107},
{51, 109},
{52, 53},
{52, 55},
{52, 58},
{52, 61},
{52, 62},
{52, 70},
{52, 71},
{52, 73},
{52, 74},
{52, 76},
{52, 85},
{52, 86},
{52, 87},
{52, 91},
{52, 96},
{52, 99},
{52, 100},
{52, 101},
{52, 102},
{52, 106},
{52, 107},
{53, 54},
{53, 55},
{53, 58},
{53, 59},
{53, 61},
{53, 64},
{53, 66},
{53, 68},
{53, 69},
{53, 70},
{53, 72},
{53, 75},
{53, 81},
{53, 82},
{53, 83},
{53, 86},
{53, 90},
{53, 91},
{53, 93},
{53, 101},
{53, 102},
{53, 104},
{53, 105},
{53, 109},
{53, 110},
{54, 55},
{54, 57},
{54, 60},
{54, 62},
{54, 63},
{54, 64},
{54, 65},
{54, 66},
{54, 68},
{54, 70},
{54, 71},
{54, 74},
{54, 77},
{54, 78},
{54, 79},
{54, 81},
{54, 84},
{54, 87},
{54, 89},
{54, 90},
{54, 94},
{54, 97},
{54, 100},
{54, 101},
{54, 102},
{54, 103},
{54, 107},
{54, 108},
{54, 110},
{55, 57},
{55, 58},
{55, 61},
{55, 62},
{55, 63},
{55, 64},
{55, 66},
{55, 68},
{55, 72},
{55, 75},
{55, 78},
{55, 81},
{55, 87},
{55, 89},
{55, 92},
{55, 97},
{55, 98},
{55, 99},
{55, 100},
{55, 102},
{55, 103},
{55, 105},
{55, 106},
{55, 107},
{55, 110},
{56, 57},
{56, 59},
{56, 61},
{56, 62},
{56, 64},
{56, 65},
{56, 68},
{56, 69},
{56, 70},
{56, 73},
{56, 74},
{56, 75},
{56, 76},
{56, 77},
{56, 80},
{56, 83},
{56, 85},
{56, 87},
{56, 94},
{56, 96},
{56, 97},
{56, 98},
{56, 99},
{56, 100},
{56, 102},
{56, 104},
{56, 108},
{57, 61},
{57, 62},
{57, 65},
{57, 66},
{57, 67},
{57, 68},
{57, 71},
{57, 72},
{57, 78},
{57, 79},
{57, 80},
{57, 81},
{57, 83},
{57, 86},
{57, 87},
{57, 88},
{57, 93},
{57, 95},
{57, 97},
{57, 98},
{57, 99},
{57, 102},
{57, 103},
{57, 104},
{57, 105},
{57, 107},
{57, 108},
{58, 59},
{58, 63},
{58, 66},
{58, 71},
{58, 73},
{58, 75},
{58, 77},
{58, 80},
{58, 82},
{58, 83},
{58, 85},
{58, 87},
{58, 92},
{58, 94},
{58, 95},
{58, 96},
{58, 98},
{58, 100},
{58, 101},
{58, 106},
{58, 107},
{58, 108},
{58, 110},
{59, 60},
{59, 61},
{59, 62},
{59, 68},
{59, 69},
{59, 71},
{59, 73},
{59, 74},
{59, 76},
{59, 79},
{59, 82},
{59, 83},
{59, 84},
{59, 85},
{59, 86},
{59, 88},
{59, 90},
{59, 91},
{59, 93},
{59, 95},
{59, 97},
{59, 98},
{59, 100},
{59, 102},
{59, 103},
{59, 104},
{59, 109},
{60, 61},
{60, 63},
{60, 66},
{60, 67},
{60, 69},
{60, 71},
{60, 73},
{60, 74},
{60, 78},
{60, 79},
{60, 80},
{60, 81},
{60, 83},
{60, 84},
{60, 85},
{60, 86},
{60, 88},
{60, 90},
{60, 91},
{60, 94},
{60, 97},
{60, 99},
{60, 100},
{60, 108},
{60, 110},
{61, 63},
{61, 64},
{61, 67},
{61, 69},
{61, 75},
{61, 76},
{61, 78},
{61, 83},
{61, 85},
{61, 87},
{61, 89},
{61, 90},
{61, 92},
{61, 93},
{61, 95},
{61, 96},
{61, 97},
{61, 99},
{61, 100},
{61, 101},
{61, 102},
{61, 104},
{61, 105},
{61, 106},
{61, 108},
{61, 109},
{61, 110},
{62, 64},
{62, 66},
{62, 69},
{62, 70},
{62, 71},
{62, 73},
{62, 75},
{62, 76},
{62, 77},
{62, 78},
{62, 79},
{62, 81},
{62, 83},
{62, 85},
{62, 86},
{62, 88},
{62, 89},
{62, 91},
{62, 92},
{62, 96},
{62, 97},
{62, 98},
{62, 103},
{62, 105},
{62, 107},
{62, 110},
{63, 64},
{63, 65},
{63, 66},
{63, 67},
{63, 68},
{63, 72},
{63, 73},
{63, 74},
{63, 75},
{63, 76},
{63, 77},
{63, 79},
{63, 80},
{63, 81},
{63, 82},
{63, 90},
{63, 91},
{63, 93},
{63, 96},
{63, 97},
{63, 98},
{63, 99},
{63, 102},
{63, 103},
{63, 105},
{63, 106},
{63, 109},
{63, 110},
{64, 68},
{64, 69},
{64, 70},
{64, 75},
{64, 77},
{64, 78},
{64, 81},
{64, 85},
{64, 86},
{64, 89},
{64, 91},
{64, 93},
{64, 95},
{64, 96},
{64, 97},
{64, 100},
{64, 102},
{64, 103},
{64, 104},
{64, 105},
{64, 107},
{64, 109},
{64, 110},
{65, 66},
{65, 69},
{65, 75},
{65, 78},
{65, 79},
{65, 80},
{65, 81},
{65, 84},
{65, 86},
{65, 87},
{65, 88},
{65, 89},
{65, 92},
{65, 93},
{65, 94},
{65, 95},
{65, 96},
{65, 98},
{65, 100},
{65, 103},
{65, 104},
{65, 105},
{65, 106},
{65, 107},
{65, 110},
{66, 67},
{66, 69},
{66, 70},
{66, 75},
{66, 90},
{66, 92},
{66, 93},
{66, 94},
{66, 96},
{66, 97},
{66, 100},
{66, 102},
{66, 106},
{66, 107},
{66, 109},
{67, 72},
{67, 73},
{67, 75},
{67, 76},
{67, 77},
{67, 80},
{67, 82},
{67, 85},
{67, 89},
{67, 90},
{67, 91},
{67, 92},
{67, 94},
{67, 99},
{67, 100},
{67, 103},
{67, 109},
{68, 72},
{68, 74},
{68, 76},
{68, 80},
{68, 81},
{68, 83},
{68, 85},
{68, 95},
{68, 105},
{68, 107},
{68, 108},
{68, 109},
{68, 110},
{69, 72},
{69, 76},
{69, 78},
{69, 79},
{69, 82},
{69, 85},
{69, 86},
{69, 88},
{69, 89},
{69, 90},
{69, 92},
{69, 96},
{69, 98},
{69, 99},
{69, 100},
{69, 103},
{69, 106},
{69, 107},
{69, 108},
{69, 109},
{70, 72},
{70, 75},
{70, 76},
{70, 79},
{70, 81},
{70, 83},
{70, 84},
{70, 88},
{70, 90},
{70, 91},
{70, 92},
{70, 94},
{70, 97},
{70, 99},
{70, 102},
{70, 105},
{71, 74},
{71, 75},
{71, 78},
{71, 79},
{71, 82},
{71, 83},
{71, 84},
{71, 85},
{71, 86},
{71, 89},
{71, 90},
{71, 93},
{71, 94},
{71, 97},
{71, 104},
{71, 106},
{71, 110},
{72, 74},
{72, 75},
{72, 76},
{72, 77},
{72, 80},
{72, 81},
{72, 82},
{72, 84},
{72, 87},
{72, 88},
{72, 89},
{72, 90},
{72, 91},
{72, 92},
{72, 96},
{72, 101},
{72, 103},
{72, 105},
{72, 106},
{72, 108},
{72, 110},
{73, 74},
{73, 76},
{73, 79},
{73, 81},
{73, 82},
{73, 84},
{73, 85},
{73, 87},
{73, 88},
{73, 90},
{73, 91},
{73, 92},
{73, 94},
{73, 96},
{73, 97},
{73, 104},
{73, 105},
{73, 106},
{73, 110},
{74, 75},
{74, 77},
{74, 79},
{74, 82},
{74, 83},
{74, 85},
{74, 86},
{74, 89},
{74, 90},
{74, 91},
{74, 93},
{74, 94},
{74, 97},
{74, 98},
{74, 99},
{74, 100},
{74, 101},
{74, 103},
{74, 104},
{74, 105},
{74, 106},
{74, 108},
{74, 109},
{75, 77},
{75, 79},
{75, 80},
{75, 82},
{75, 86},
{75, 87},
{75, 90},
{75, 91},
{75, 92},
{75, 95},
{75, 97},
{75, 98},
{75, 102},
{75, 103},
{75, 105},
{75, 106},
{75, 108},
{75, 109},
{75, 110},
{76, 77},
{76, 78},
{76, 79},
{76, 80},
{76, 82},
{76, 83},
{76, 85},
{76, 86},
{76, 88},
{76, 89},
{76, 90},
{76, 95},
{76, 96},
{76, 97},
{76, 98},
{76, 99},
{76, 101},
{76, 105},
{76, 108},
{76, 110},
{77, 85},
{77, 86},
{77, 88},
{77, 92},
{77, 93},
{77, 95},
{77, 97},
{77, 101},
{77, 102},
{77, 103},
{77, 104},
{77, 106},
{77, 108},
{78, 80},
{78, 81},
{78, 82},
{78, 83},
{78, 85},
{78, 88},
{78, 89},
{78, 92},
{78, 93},
{78, 94},
{78, 95},
{78, 97},
{78, 103},
{78, 107},
{78, 110},
{79, 85},
{79, 86},
{79, 88},
{79, 91},
{79, 92},
{79, 93},
{79, 94},
{79, 95},
{79, 96},
{79, 97},
{79, 99},
{79, 102},
{79, 103},
{79, 104},
{79, 105},
{79, 106},
{79, 107},
{79, 108},
{79, 109},
{79, 110},
{80, 83},
{80, 84},
{80, 85},
{80, 86},
{80, 89},
{80, 90},
{80, 91},
{80, 92},
{80, 96},
{80, 100},
{80, 101},
{80, 102},
{80, 104},
{80, 105},
{80, 107},
{81, 85},
{81, 87},
{81, 88},
{81, 89},
{81, 90},
{81, 91},
{81, 93},
{81, 94},
{81, 95},
{81, 97},
{81, 101},
{81, 102},
{81, 103},
{81, 107},
{81, 108},
{81, 109},
{82, 84},
{82, 85},
{82, 88},
{82, 92},
{82, 94},
{82, 95},
{82, 98},
{82, 101},
{82, 103},
{82, 105},
{82, 106},
{82, 109},
{83, 84},
{83, 85},
{83, 87},
{83, 88},
{83, 92},
{83, 93},
{83, 94},
{83, 95},
{83, 97},
{83, 98},
{83, 99},
{83, 103},
{83, 104},
{83, 107},
{83, 108},
{83, 110},
{84, 86},
{84, 87},
{84, 88},
{84, 89},
{84, 90},
{84, 92},
{84, 95},
{84, 98},
{84, 100},
{84, 101},
{85, 89},
{85, 90},
{85, 92},
{85, 97},
{85, 99},
{85, 100},
{85, 102},
{85, 104},
{85, 107},
{85, 108},
{85, 110},
{86, 88},
{86, 90},
{86, 92},
{86, 93},
{86, 94},
{86, 96},
{86, 97},
{86, 98},
{86, 100},
{86, 101},
{86, 102},
{86, 103},
{86, 104},
{86, 105},
{86, 106},
{86, 108},
{87, 88},
{87, 91},
{87, 93},
{87, 95},
{87, 96},
{87, 99},
{87, 102},
{87, 103},
{87, 104},
{87, 105},
{87, 108},
{87, 109},
{88, 90},
{88, 91},
{88, 97},
{88, 101},
{88, 102},
{88, 104},
{88, 108},
{88, 109},
{89, 91},
{89, 92},
{89, 96},
{89, 97},
{89, 98},
{89, 104},
{89, 107},
{89, 110},
{90, 91},
{90, 93},
{90, 95},
{90, 96},
{90, 98},
{90, 99},
{90, 101},
{90, 105},
{90, 106},
{90, 107},
{90, 110},
{91, 92},
{91, 95},
{91, 96},
{91, 98},
{91, 101},
{91, 103},
{91, 104},
{91, 105},
{91, 106},
{91, 108},
{91, 110},
{92, 95},
{92, 96},
{92, 98},
{92, 99},
{92, 100},
{92, 105},
{92, 108},
{92, 110},
{93, 95},
{93, 96},
{93, 98},
{93, 100},
{93, 101},
{93, 103},
{93, 104},
{93, 105},
{93, 106},
{93, 107},
{93, 110},
{94, 96},
{94, 97},
{94, 101},
{94, 105},
{94, 106},
{94, 108},
{94, 109},
{95, 96},
{95, 99},
{95, 106},
{95, 107},
{95, 108},
{95, 109},
{96, 98},
{96, 99},
{96, 100},
{96, 101},
{96, 102},
{96, 103},
{96, 104},
{96, 106},
{96, 107},
{96, 110},
{97, 98},
{97, 102},
{97, 104},
{97, 105},
{97, 108},
{97, 110},
{98, 101},
{98, 102},
{98, 103},
{98, 105},
{98, 106},
{98, 107},
{98, 108},
{98, 109},
{99, 101},
{99, 102},
{99, 108},
{99, 109},
{99, 110},
{100, 104},
{100, 110},
{101, 107},
{101, 109},
{102, 104},
{102, 106},
{102, 107},
{102, 110},
{103, 104},
{103, 105},
{103, 106},
{103, 107},
{103, 108},
{103, 109},
{103, 110},
{104, 105},
{104, 106},
{104, 108},
{104, 110},
{105, 106},
{105, 109},
{106, 107},
{107, 109},
{109, 110}}
